rc101_3
0 95 62 80 102 82 26 23 24 30 53 28 54 25 27 29 63 79 64 92 18 52 20 2 21 19 22 16 15 14 17 78 83 84 12 13 50 9 8 51 10 6 11 7 65 58 93 60 105 75 1 48 41 44 45 42 40 43 49 47 46 77 76 34 36 32 35 33 31 37 0